100
100
931 9
203 10
592 12
568 19
470 16
175 9
821 7
306 13
101 10
671 9
658 12
517 3
964 22
902 20
424 2
622 23
172 3
138 8
421 20
771 19
759 1
869 14
924 14
432 22
559 18
871 25
521 4
481 9
27 7
871 17
70 2
33 15
947 5
99 12
809 24
922 1
72 16
921 24
585 20
927 3
555 5
233 8
97 14
741 11
88 15
782 21
449 1
158 3
549 15
172 6
117 21
394 8
662 17
468 8
727 14
908 20
259 17
402 21
191 22
361 20
256 13
102 11
515 25
337 7
844 14
281 1
281 20
726 13
557 10
297 12
537 22
918 11
404 5
664 15
864 1
338 3
199 18
986 8
859 12
837 7
414 22
153 2
653 17
261 25
844 22
712 25
425 2
647 3
374 14
876 21
295 7
406 14
22 20
791 12
229 24
292 15
489 17
376 20
756 22
207 17
